% Número total de personas
n = 5;

% Número de opiniones posibles
m = 5;

% Distribución inicial de personas por opinión
p = [0, 1, 0, 1, 3];

% Valores de las opiniones
v = [436, 462, 566, 756, 819];

% Costos extras al mover a opiniones vacías
ce = [14736, 3593, 9041, 5082, 11407];

% Matriz de costos de mover de una opinión a otra
C = array2d(1..5, 1..5,
  [
    0,    3387,    3544,    2307,    4364,
    3311,    0,    3711,    4986,    4826,
    1268,    4013,    0,    2958,    3932,
    4800,    2986,    4087,    0,    1667,
    4535,    2507,    1615,    4926,    0
  ]);

% Costo total máximo permitido
C_max = 75430;

% Número máximo de movimientos permitidos
M_max = 39;
